NAME : RWPToy-10-2.608260167.tour
COMMENT : Length = 608260167
COMMENT : Found by LKH [Keld Helsgaun] Sat Nov 24 00:57:24 2018
TYPE : TOUR
DIMENSION : 15
TOUR_SECTION
1
11
3
4
6
5
2
9
7
10
8
13
12
15
14
-1
EOF
